c A SAT instance generated from a 3-CNF formula that had 28 clauses and 7 variables
p cnf 7 28
-1 -2 -7 0
-4 2 -1 0
-1 -2 3 0
4 6 7 0
5 -3 -7 0
-3 -2 -7 0
-3 4 5 0
-3 7 -5 0
7 -5 -2 0
4 3 -2 0
-3 2 6 0
-2 -6 -7 0
1 7 2 0
5 -4 6 0
-5 -6 -3 0
-4 6 -5 0
7 6 5 0
4 -2 3 0
6 -4 1 0
7 6 -2 0
3 -4 -2 0
5 -4 2 0
-3 -2 -6 0
4 -2 5 0
-6 -2 1 0
2 -4 1 0
-5 2 6 0
-7 -4 -3 0
